p wcnf 114 617 1048575
1048575 -12 -50 0
1048575 -12 -88 0
1048575 12 0
1048575 -50 -88 0
1048575 12 50 88 0
1048575 -13 -51 0
1048575 -13 -89 0
1048575 -51 -89 0
1048575 -51 12 0
1048575 -89 50 0
1048575 13 51 89 0
1048575 -14 -52 0
1048575 -14 -90 0
1048575 -52 -90 0
1048575 -52 12 13 0
1048575 -90 50 51 0
1048575 14 52 90 0
1048575 -28 -53 0
1048575 -28 -91 0
1048575 -66 -15 0
1048575 -66 -91 0
1048575 -104 -15 0
1048575 -104 -53 0
1048575 -15 -66 0
1048575 -15 -104 0
1048575 -53 -28 0
1048575 -53 -104 0
1048575 -91 -28 0
1048575 -91 -66 0
1048575 1 2 3 4 5 6 7 8 9 10 11 0
1048575 -1 -2 0
1048575 -1 -3 0
1048575 -1 -4 0
1048575 -1 -5 0
1048575 -1 -6 0
1048575 -1 -7 0
1048575 -1 -8 0
1048575 -1 -9 0
1048575 -1 -10 0
1048575 -1 -11 0
1048575 -2 -3 0
1048575 -2 -4 0
1048575 -2 -5 0
1048575 -2 -6 0
1048575 -2 -7 0
1048575 -2 -8 0
1048575 -2 -9 0
1048575 -2 -10 0
1048575 -2 -11 0
1048575 -3 -4 0
1048575 -3 -5 0
1048575 -3 -6 0
1048575 -3 -7 0
1048575 -3 -8 0
1048575 -3 -9 0
1048575 -3 -10 0
1048575 -3 -11 0
1048575 -4 -5 0
1048575 -4 -6 0
1048575 -4 -7 0
1048575 -4 -8 0
1048575 -4 -9 0
1048575 -4 -10 0
1048575 -4 -11 0
1048575 -5 -6 0
1048575 -5 -7 0
1048575 -5 -8 0
1048575 -5 -9 0
1048575 -5 -10 0
1048575 -5 -11 0
1048575 -6 -7 0
1048575 -6 -8 0
1048575 -6 -9 0
1048575 -6 -10 0
1048575 -6 -11 0
1048575 -7 -8 0
1048575 -7 -9 0
1048575 -7 -10 0
1048575 -7 -11 0
1048575 -8 -9 0
1048575 -8 -10 0
1048575 -8 -11 0
1048575 -9 -10 0
1048575 -9 -11 0
1048575 -10 -11 0
1048575 -1 -12 0
1048575 -1 -13 0
1048575 -1 -14 0
1048575 -2 12 13 14 0
1048575 -3 12 13 14 0
1048575 -4 12 13 14 0
1048575 -5 12 13 14 0
1048575 -6 12 13 14 0
1048575 -7 12 13 14 0
1048575 -8 12 13 14 0
1048575 -9 12 13 14 0
1048575 -10 12 13 14 0
1048575 -11 12 13 14 0
1048575 -12 -3 31 0
1048575 -12 -5 32 0
1048575 -12 -9 33 0
1048575 -13 -3 34 0
1048575 -13 -10 35 0
1048575 -14 -2 36 0
1048575 -14 -4 37 0
1048575 -14 -10 38 0
1048575 -3 -31 23 0
1048575 -3 -31 28 0
1048575 -5 -32 17 0
1048575 -5 -32 24 0
1048575 -9 -33 21 0
1048575 -9 -33 26 0
1048575 -3 -34 16 0
1048575 -3 -34 19 0
1048575 -10 -35 25 0
1048575 -10 -35 30 0
1048575 -2 -36 29 0
1048575 -2 -36 20 0
1048575 -4 -37 18 0
1048575 -4 -37 22 0
1048575 -10 -38 27 0
1048575 -10 -38 15 0
1048575 -31 12 0
1048575 -31 3 0
1048575 -32 12 0
1048575 -32 5 0
1048575 -33 12 0
1048575 -33 9 0
1048575 -34 13 0
1048575 -34 3 0
1048575 -35 13 0
1048575 -35 10 0
1048575 -36 14 0
1048575 -36 2 0
1048575 -37 14 0
1048575 -37 4 0
1048575 -38 14 0
1048575 -38 10 0
1048575 -18 -4 37 0
1048575 -30 -10 35 0
1048575 -29 -2 36 0
1048575 -28 -3 31 0
1048575 -22 -4 37 0
1048575 -27 -10 38 0
1048575 -20 -2 36 0
1048575 -24 -5 32 0
1048575 -15 -10 38 0
1048575 -16 -3 34 0
1048575 -17 -5 32 0
1048575 -19 -3 34 0
1048575 -23 -3 31 0
1048575 -26 -9 33 0
1048575 -21 -9 33 0
1048575 -25 -10 35 0
1048575 -15 10 0
1048575 -16 3 0
1048575 -17 5 0
1048575 -18 4 0
1048575 -19 3 0
1048575 -20 2 0
1048575 -21 9 0
1048575 -22 4 0
1048575 -23 3 0
1048575 -24 5 0
1048575 -25 10 0
1048575 -26 9 0
1048575 -27 10 0
1048575 -28 3 0
1048575 -29 2 0
1048575 -30 10 0
1048575 -2 -12 -13 0
1048575 -2 -12 -14 0
1048575 -2 -13 -14 0
1048575 -3 -12 -13 0
1048575 -3 -12 -14 0
1048575 -3 -13 -14 0
1048575 -4 -12 -13 0
1048575 -4 -12 -14 0
1048575 -4 -13 -14 0
1048575 -5 -12 -13 0
1048575 -5 -12 -14 0
1048575 -5 -13 -14 0
1048575 -6 -12 -13 0
1048575 -6 -12 -14 0
1048575 -6 -13 -14 0
1048575 -7 -12 -13 0
1048575 -7 -12 -14 0
1048575 -7 -13 -14 0
1048575 -8 -12 -13 0
1048575 -8 -12 -14 0
1048575 -8 -13 -14 0
1048575 -9 -12 -13 0
1048575 -9 -12 -14 0
1048575 -9 -13 -14 0
1048575 -10 -12 -13 0
1048575 -10 -12 -14 0
1048575 -10 -13 -14 0
1048575 -11 -12 -13 0
1048575 -11 -12 -14 0
1048575 -11 -13 -14 0
1048575 -12 -10 0
1048575 -12 -7 0
1048575 -13 -7 0
1048575 -14 -7 0
1048575 -12 -6 0
1048575 -13 -6 0
1048575 -14 -6 0
1048575 -12 -2 0
1048575 -13 -2 0
1048575 -13 -9 0
1048575 -14 -9 0
1048575 -12 -8 0
1048575 -13 -8 0
1048575 -14 -8 0
1048575 -12 -11 0
1048575 -13 -11 0
1048575 -14 -11 0
1048575 -13 -5 0
1048575 -14 -5 0
1048575 -12 -4 0
1048575 -13 -4 0
1048575 -14 -3 0
1048575 -28 -15 0
1048575 -15 -28 0
1048575 -21 0
2 6 0
503 2 0
531 4 0
48 11 0
859 7 0
954 9 0
386 5 0
808 8 0
696 3 0
979 10 0
1048575 39 40 41 42 43 44 45 46 47 48 49 0
1048575 -39 -40 0
1048575 -39 -41 0
1048575 -39 -42 0
1048575 -39 -43 0
1048575 -39 -44 0
1048575 -39 -45 0
1048575 -39 -46 0
1048575 -39 -47 0
1048575 -39 -48 0
1048575 -39 -49 0
1048575 -40 -41 0
1048575 -40 -42 0
1048575 -40 -43 0
1048575 -40 -44 0
1048575 -40 -45 0
1048575 -40 -46 0
1048575 -40 -47 0
1048575 -40 -48 0
1048575 -40 -49 0
1048575 -41 -42 0
1048575 -41 -43 0
1048575 -41 -44 0
1048575 -41 -45 0
1048575 -41 -46 0
1048575 -41 -47 0
1048575 -41 -48 0
1048575 -41 -49 0
1048575 -42 -43 0
1048575 -42 -44 0
1048575 -42 -45 0
1048575 -42 -46 0
1048575 -42 -47 0
1048575 -42 -48 0
1048575 -42 -49 0
1048575 -43 -44 0
1048575 -43 -45 0
1048575 -43 -46 0
1048575 -43 -47 0
1048575 -43 -48 0
1048575 -43 -49 0
1048575 -44 -45 0
1048575 -44 -46 0
1048575 -44 -47 0
1048575 -44 -48 0
1048575 -44 -49 0
1048575 -45 -46 0
1048575 -45 -47 0
1048575 -45 -48 0
1048575 -45 -49 0
1048575 -46 -47 0
1048575 -46 -48 0
1048575 -46 -49 0
1048575 -47 -48 0
1048575 -47 -49 0
1048575 -48 -49 0
1048575 -39 -50 0
1048575 -39 -51 0
1048575 -39 -52 0
1048575 -40 50 51 52 0
1048575 -41 50 51 52 0
1048575 -42 50 51 52 0
1048575 -43 50 51 52 0
1048575 -44 50 51 52 0
1048575 -45 50 51 52 0
1048575 -46 50 51 52 0
1048575 -47 50 51 52 0
1048575 -48 50 51 52 0
1048575 -49 50 51 52 0
1048575 -50 -41 69 0
1048575 -50 -43 70 0
1048575 -50 -47 71 0
1048575 -51 -41 72 0
1048575 -51 -48 73 0
1048575 -52 -40 74 0
1048575 -52 -42 75 0
1048575 -52 -48 76 0
1048575 -41 -69 61 0
1048575 -41 -69 66 0
1048575 -43 -70 55 0
1048575 -43 -70 62 0
1048575 -47 -71 59 0
1048575 -47 -71 64 0
1048575 -41 -72 54 0
1048575 -41 -72 57 0
1048575 -48 -73 63 0
1048575 -48 -73 68 0
1048575 -40 -74 67 0
1048575 -40 -74 58 0
1048575 -42 -75 56 0
1048575 -42 -75 60 0
1048575 -48 -76 65 0
1048575 -48 -76 53 0
1048575 -69 50 0
1048575 -69 41 0
1048575 -70 50 0
1048575 -70 43 0
1048575 -71 50 0
1048575 -71 47 0
1048575 -72 51 0
1048575 -72 41 0
1048575 -73 51 0
1048575 -73 48 0
1048575 -74 52 0
1048575 -74 40 0
1048575 -75 52 0
1048575 -75 42 0
1048575 -76 52 0
1048575 -76 48 0
1048575 -56 -42 75 0
1048575 -68 -48 73 0
1048575 -67 -40 74 0
1048575 -66 -41 69 0
1048575 -60 -42 75 0
1048575 -65 -48 76 0
1048575 -58 -40 74 0
1048575 -62 -43 70 0
1048575 -53 -48 76 0
1048575 -54 -41 72 0
1048575 -55 -43 70 0
1048575 -57 -41 72 0
1048575 -61 -41 69 0
1048575 -64 -47 71 0
1048575 -59 -47 71 0
1048575 -63 -48 73 0
1048575 -53 48 0
1048575 -54 41 0
1048575 -55 43 0
1048575 -56 42 0
1048575 -57 41 0
1048575 -58 40 0
1048575 -59 47 0
1048575 -60 42 0
1048575 -61 41 0
1048575 -62 43 0
1048575 -63 48 0
1048575 -64 47 0
1048575 -65 48 0
1048575 -66 41 0
1048575 -67 40 0
1048575 -68 48 0
1048575 -40 -50 -51 0
1048575 -40 -50 -52 0
1048575 -40 -51 -52 0
1048575 -41 -50 -51 0
1048575 -41 -50 -52 0
1048575 -41 -51 -52 0
1048575 -42 -50 -51 0
1048575 -42 -50 -52 0
1048575 -42 -51 -52 0
1048575 -43 -50 -51 0
1048575 -43 -50 -52 0
1048575 -43 -51 -52 0
1048575 -44 -50 -51 0
1048575 -44 -50 -52 0
1048575 -44 -51 -52 0
1048575 -45 -50 -51 0
1048575 -45 -50 -52 0
1048575 -45 -51 -52 0
1048575 -46 -50 -51 0
1048575 -46 -50 -52 0
1048575 -46 -51 -52 0
1048575 -47 -50 -51 0
1048575 -47 -50 -52 0
1048575 -47 -51 -52 0
1048575 -48 -50 -51 0
1048575 -48 -50 -52 0
1048575 -48 -51 -52 0
1048575 -49 -50 -51 0
1048575 -49 -50 -52 0
1048575 -49 -51 -52 0
1048575 -50 -48 0
1048575 -50 -45 0
1048575 -51 -45 0
1048575 -52 -45 0
1048575 -50 -44 0
1048575 -51 -44 0
1048575 -52 -44 0
1048575 -50 -40 0
1048575 -51 -40 0
1048575 -51 -47 0
1048575 -52 -47 0
1048575 -50 -46 0
1048575 -51 -46 0
1048575 -52 -46 0
1048575 -50 -49 0
1048575 -51 -49 0
1048575 -52 -49 0
1048575 -51 -43 0
1048575 -52 -43 0
1048575 -50 -42 0
1048575 -51 -42 0
1048575 -52 -41 0
1048575 -66 -53 0
1048575 -53 -66 0
1048575 -59 0
2 44 0
503 40 0
531 42 0
48 49 0
859 45 0
954 47 0
386 43 0
808 46 0
696 41 0
979 48 0
1048575 77 78 79 80 81 82 83 84 85 86 87 0
1048575 -77 -78 0
1048575 -77 -79 0
1048575 -77 -80 0
1048575 -77 -81 0
1048575 -77 -82 0
1048575 -77 -83 0
1048575 -77 -84 0
1048575 -77 -85 0
1048575 -77 -86 0
1048575 -77 -87 0
1048575 -78 -79 0
1048575 -78 -80 0
1048575 -78 -81 0
1048575 -78 -82 0
1048575 -78 -83 0
1048575 -78 -84 0
1048575 -78 -85 0
1048575 -78 -86 0
1048575 -78 -87 0
1048575 -79 -80 0
1048575 -79 -81 0
1048575 -79 -82 0
1048575 -79 -83 0
1048575 -79 -84 0
1048575 -79 -85 0
1048575 -79 -86 0
1048575 -79 -87 0
1048575 -80 -81 0
1048575 -80 -82 0
1048575 -80 -83 0
1048575 -80 -84 0
1048575 -80 -85 0
1048575 -80 -86 0
1048575 -80 -87 0
1048575 -81 -82 0
1048575 -81 -83 0
1048575 -81 -84 0
1048575 -81 -85 0
1048575 -81 -86 0
1048575 -81 -87 0
1048575 -82 -83 0
1048575 -82 -84 0
1048575 -82 -85 0
1048575 -82 -86 0
1048575 -82 -87 0
1048575 -83 -84 0
1048575 -83 -85 0
1048575 -83 -86 0
1048575 -83 -87 0
1048575 -84 -85 0
1048575 -84 -86 0
1048575 -84 -87 0
1048575 -85 -86 0
1048575 -85 -87 0
1048575 -86 -87 0
1048575 -77 -88 0
1048575 -77 -89 0
1048575 -77 -90 0
1048575 -78 88 89 90 0
1048575 -79 88 89 90 0
1048575 -80 88 89 90 0
1048575 -81 88 89 90 0
1048575 -82 88 89 90 0
1048575 -83 88 89 90 0
1048575 -84 88 89 90 0
1048575 -85 88 89 90 0
1048575 -86 88 89 90 0
1048575 -87 88 89 90 0
1048575 -88 -79 107 0
1048575 -88 -81 108 0
1048575 -88 -85 109 0
1048575 -89 -79 110 0
1048575 -89 -86 111 0
1048575 -90 -78 112 0
1048575 -90 -80 113 0
1048575 -90 -86 114 0
1048575 -79 -107 99 0
1048575 -79 -107 104 0
1048575 -81 -108 93 0
1048575 -81 -108 100 0
1048575 -85 -109 97 0
1048575 -85 -109 102 0
1048575 -79 -110 92 0
1048575 -79 -110 95 0
1048575 -86 -111 101 0
1048575 -86 -111 106 0
1048575 -78 -112 105 0
1048575 -78 -112 96 0
1048575 -80 -113 94 0
1048575 -80 -113 98 0
1048575 -86 -114 103 0
1048575 -86 -114 91 0
1048575 -107 88 0
1048575 -107 79 0
1048575 -108 88 0
1048575 -108 81 0
1048575 -109 88 0
1048575 -109 85 0
1048575 -110 89 0
1048575 -110 79 0
1048575 -111 89 0
1048575 -111 86 0
1048575 -112 90 0
1048575 -112 78 0
1048575 -113 90 0
1048575 -113 80 0
1048575 -114 90 0
1048575 -114 86 0
1048575 -94 -80 113 0
1048575 -106 -86 111 0
1048575 -105 -78 112 0
1048575 -104 -79 107 0
1048575 -98 -80 113 0
1048575 -103 -86 114 0
1048575 -96 -78 112 0
1048575 -100 -81 108 0
1048575 -91 -86 114 0
1048575 -92 -79 110 0
1048575 -93 -81 108 0
1048575 -95 -79 110 0
1048575 -99 -79 107 0
1048575 -102 -85 109 0
1048575 -97 -85 109 0
1048575 -101 -86 111 0
1048575 -91 86 0
1048575 -92 79 0
1048575 -93 81 0
1048575 -94 80 0
1048575 -95 79 0
1048575 -96 78 0
1048575 -97 85 0
1048575 -98 80 0
1048575 -99 79 0
1048575 -100 81 0
1048575 -101 86 0
1048575 -102 85 0
1048575 -103 86 0
1048575 -104 79 0
1048575 -105 78 0
1048575 -106 86 0
1048575 -78 -88 -89 0
1048575 -78 -88 -90 0
1048575 -78 -89 -90 0
1048575 -79 -88 -89 0
1048575 -79 -88 -90 0
1048575 -79 -89 -90 0
1048575 -80 -88 -89 0
1048575 -80 -88 -90 0
1048575 -80 -89 -90 0
1048575 -81 -88 -89 0
1048575 -81 -88 -90 0
1048575 -81 -89 -90 0
1048575 -82 -88 -89 0
1048575 -82 -88 -90 0
1048575 -82 -89 -90 0
1048575 -83 -88 -89 0
1048575 -83 -88 -90 0
1048575 -83 -89 -90 0
1048575 -84 -88 -89 0
1048575 -84 -88 -90 0
1048575 -84 -89 -90 0
1048575 -85 -88 -89 0
1048575 -85 -88 -90 0
1048575 -85 -89 -90 0
1048575 -86 -88 -89 0
1048575 -86 -88 -90 0
1048575 -86 -89 -90 0
1048575 -87 -88 -89 0
1048575 -87 -88 -90 0
1048575 -87 -89 -90 0
1048575 -88 -86 0
1048575 -88 -83 0
1048575 -89 -83 0
1048575 -90 -83 0
1048575 -88 -82 0
1048575 -89 -82 0
1048575 -90 -82 0
1048575 -88 -78 0
1048575 -89 -78 0
1048575 -89 -85 0
1048575 -90 -85 0
1048575 -88 -84 0
1048575 -89 -84 0
1048575 -90 -84 0
1048575 -88 -87 0
1048575 -89 -87 0
1048575 -90 -87 0
1048575 -89 -81 0
1048575 -90 -81 0
1048575 -88 -80 0
1048575 -89 -80 0
1048575 -90 -79 0
1048575 -104 -91 0
1048575 -91 -104 0
1048575 -97 0
2 82 0
503 78 0
531 80 0
48 87 0
859 83 0
954 85 0
386 81 0
808 84 0
696 79 0
979 86 0
